data/lp_files/pEFS/87_7.lp
\ Model foo
\ LP format - for model browsing. Use MPS format to capture full model detail.
Minimize
  z
Subject To
 allocateEach[1]: x[1,1] + x[2,1] + x[3,1] + x[4,1] + x[5,1] = 1
 allocateEach[2]: x[1,2] + x[2,2] + x[3,2] + x[4,2] + x[5,2] = 1
 allocateEach[3]: x[1,3] + x[2,3] + x[3,3] + x[4,3] + x[5,3] = 1
 allocateEach[4]: x[1,4] + x[2,4] + x[3,4] + x[4,4] + x[5,4] = 1
 allocateEach[5]: x[1,5] + x[2,5] + x[3,5] + x[4,5] + x[5,5] = 1
 allocateEach[6]: x[1,6] + x[2,6] + x[3,6] + x[4,6] + x[5,6] = 1
 allocateEach[7]: x[1,7] + x[2,7] + x[3,7] + x[4,7] + x[5,7] = 1
 allocateAllCash: cashProportion[1] + cashProportion[2] + cashProportion[3]
   + cashProportion[4] + cashProportion[5] = 1
 findWorstP[1,2]: z + 0.1626412946247052 cashProportion[1]
   - 0.1626412946247052 cashProportion[2] + 0.1913203762435282 x[1,1]
   + 0.2655119134748313 x[1,2] + 0.00715621696348703 x[1,3]
   + 0.0581442628283321 x[1,4] + 0.0927868585833943 x[1,5]
   + 0.0589845761838931 x[1,6] + 0.1634545010978287 x[1,7]
   - 0.1913203762435282 x[2,1] - 0.2655119134748313 x[2,2]
   - 0.00715621696348703 x[2,3] - 0.0581442628283321 x[2,4]
   - 0.0927868585833943 x[2,5] - 0.0589845761838931 x[2,6]
   - 0.1634545010978287 x[2,7] >= 0
 findWorstP[1,3]: z + 0.1626412946247052 cashProportion[1]
   - 0.1626412946247052 cashProportion[3] + 0.1913203762435282 x[1,1]
   + 0.2655119134748313 x[1,2] + 0.00715621696348703 x[1,3]
   + 0.0581442628283321 x[1,4] + 0.0927868585833943 x[1,5]
   + 0.0589845761838931 x[1,6] + 0.1634545010978287 x[1,7]
   - 0.1913203762435282 x[3,1] - 0.2655119134748313 x[3,2]
   - 0.00715621696348703 x[3,3] - 0.0581442628283321 x[3,4]
   - 0.0927868585833943 x[3,5] - 0.0589845761838931 x[3,6]
   - 0.1634545010978287 x[3,7] >= 0
 findWorstP[1,4]: z + 0.1626412946247052 cashProportion[1]
   - 0.1626412946247052 cashProportion[4] + 0.1913203762435282 x[1,1]
   + 0.2655119134748313 x[1,2] + 0.00715621696348703 x[1,3]
   + 0.0581442628283321 x[1,4] + 0.0927868585833943 x[1,5]
   + 0.0589845761838931 x[1,6] + 0.1634545010978287 x[1,7]
   - 0.1913203762435282 x[4,1] - 0.2655119134748313 x[4,2]
   - 0.00715621696348703 x[4,3] - 0.0581442628283321 x[4,4]
   - 0.0927868585833943 x[4,5] - 0.0589845761838931 x[4,6]
   - 0.1634545010978287 x[4,7] >= 0
 findWorstP[1,5]: z + 0.1626412946247052 cashProportion[1]
   - 0.1626412946247052 cashProportion[5] + 0.1913203762435282 x[1,1]
   + 0.2655119134748313 x[1,2] + 0.00715621696348703 x[1,3]
   + 0.0581442628283321 x[1,4] + 0.0927868585833943 x[1,5]
   + 0.0589845761838931 x[1,6] + 0.1634545010978287 x[1,7]
   - 0.1913203762435282 x[5,1] - 0.2655119134748313 x[5,2]
   - 0.00715621696348703 x[5,3] - 0.0581442628283321 x[5,4]
   - 0.0927868585833943 x[5,5] - 0.0589845761838931 x[5,6]
   - 0.1634545010978287 x[5,7] >= 0
 findWorstP[2,1]: z - 0.1302705284641105 cashProportion[1]
   + 0.1302705284641105 cashProportion[2] - 0.1748881844630683 x[1,1]
   - 0.1958834513005341 x[1,2] - 0.0147639932259325 x[1,3]
   - 0.1829649572278431 x[1,4] - 0.1170263580702592 x[1,5]
   - 0.1583221155933822 x[1,6] - 0.0258804116548699 x[1,7]
   + 0.1748881844630683 x[2,1] + 0.1958834513005341 x[2,2]
   + 0.0147639932259325 x[2,3] + 0.1829649572278431 x[2,4]
   + 0.1170263580702592 x[2,5] + 0.1583221155933822 x[2,6]
   + 0.0258804116548699 x[2,7] >= 0
 findWorstP[2,3]: z + 0.1302705284641105 cashProportion[2]
   - 0.1302705284641105 cashProportion[3] + 0.1748881844630683 x[2,1]
   + 0.1958834513005341 x[2,2] + 0.0147639932259325 x[2,3]
   + 0.1829649572278431 x[2,4] + 0.1170263580702592 x[2,5]
   + 0.1583221155933822 x[2,6] + 0.0258804116548699 x[2,7]
   - 0.1748881844630683 x[3,1] - 0.1958834513005341 x[3,2]
   - 0.0147639932259325 x[3,3] - 0.1829649572278431 x[3,4]
   - 0.1170263580702592 x[3,5] - 0.1583221155933822 x[3,6]
   - 0.0258804116548699 x[3,7] >= 0
 findWorstP[2,4]: z + 0.1302705284641105 cashProportion[2]
   - 0.1302705284641105 cashProportion[4] + 0.1748881844630683 x[2,1]
   + 0.1958834513005341 x[2,2] + 0.0147639932259325 x[2,3]
   + 0.1829649572278431 x[2,4] + 0.1170263580702592 x[2,5]
   + 0.1583221155933822 x[2,6] + 0.0258804116548699 x[2,7]
   - 0.1748881844630683 x[4,1] - 0.1958834513005341 x[4,2]
   - 0.0147639932259325 x[4,3] - 0.1829649572278431 x[4,4]
   - 0.1170263580702592 x[4,5] - 0.1583221155933822 x[4,6]
   - 0.0258804116548699 x[4,7] >= 0
 findWorstP[2,5]: z + 0.1302705284641105 cashProportion[2]
   - 0.1302705284641105 cashProportion[5] + 0.1748881844630683 x[2,1]
   + 0.1958834513005341 x[2,2] + 0.0147639932259325 x[2,3]
   + 0.1829649572278431 x[2,4] + 0.1170263580702592 x[2,5]
   + 0.1583221155933822 x[2,6] + 0.0258804116548699 x[2,7]
   - 0.1748881844630683 x[5,1] - 0.1958834513005341 x[5,2]
   - 0.0147639932259325 x[5,3] - 0.1829649572278431 x[5,4]
   - 0.1170263580702592 x[5,5] - 0.1583221155933822 x[5,6]
   - 0.0258804116548699 x[5,7] >= 0
 findWorstP[3,1]: z - 0.1475325186259805 cashProportion[1]
   + 0.1475325186259805 cashProportion[3] - 0.0447269418967764 x[1,1]
   - 0.1427377117706361 x[1,2] - 0.2416090880031473 x[1,3]
   - 0.0327522191349677 x[1,4] - 0.1241977919299712 x[1,5]
   - 0.2447072708942929 x[1,6] - 0.0217364577442278 x[1,7]
   + 0.0447269418967764 x[3,1] + 0.1427377117706361 x[3,2]
   + 0.2416090880031473 x[3,3] + 0.0327522191349677 x[3,4]
   + 0.1241977919299712 x[3,5] + 0.2447072708942929 x[3,6]
   + 0.0217364577442278 x[3,7] >= 0
 findWorstP[3,2]: z - 0.1475325186259805 cashProportion[2]
   + 0.1475325186259805 cashProportion[3] - 0.0447269418967764 x[2,1]
   - 0.1427377117706361 x[2,2] - 0.2416090880031473 x[2,3]
   - 0.0327522191349677 x[2,4] - 0.1241977919299712 x[2,5]
   - 0.2447072708942929 x[2,6] - 0.0217364577442278 x[2,7]
   + 0.0447269418967764 x[3,1] + 0.1427377117706361 x[3,2]
   + 0.2416090880031473 x[3,3] + 0.0327522191349677 x[3,4]
   + 0.1241977919299712 x[3,5] + 0.2447072708942929 x[3,6]
   + 0.0217364577442278 x[3,7] >= 0
 findWorstP[3,4]: z + 0.1475325186259805 cashProportion[3]
   - 0.1475325186259805 cashProportion[4] + 0.0447269418967764 x[3,1]
   + 0.1427377117706361 x[3,2] + 0.2416090880031473 x[3,3]
   + 0.0327522191349677 x[3,4] + 0.1241977919299712 x[3,5]
   + 0.2447072708942929 x[3,6] + 0.0217364577442278 x[3,7]
   - 0.0447269418967764 x[4,1] - 0.1427377117706361 x[4,2]
   - 0.2416090880031473 x[4,3] - 0.0327522191349677 x[4,4]
   - 0.1241977919299712 x[4,5] - 0.2447072708942929 x[4,6]
   - 0.0217364577442278 x[4,7] >= 0
 findWorstP[3,5]: z + 0.1475325186259805 cashProportion[3]
   - 0.1475325186259805 cashProportion[5] + 0.0447269418967764 x[3,1]
   + 0.1427377117706361 x[3,2] + 0.2416090880031473 x[3,3]
   + 0.0327522191349677 x[3,4] + 0.1241977919299712 x[3,5]
   + 0.2447072708942929 x[3,6] + 0.0217364577442278 x[3,7]
   - 0.0447269418967764 x[5,1] - 0.1427377117706361 x[5,2]
   - 0.2416090880031473 x[5,3] - 0.0327522191349677 x[5,4]
   - 0.1241977919299712 x[5,5] - 0.2447072708942929 x[5,6]
   - 0.0217364577442278 x[5,7] >= 0
 findWorstP[4,1]: z - 0.110819696354032 cashProportion[1]
   + 0.110819696354032 cashProportion[4] - 0.1846994939233867 x[1,1]
   - 0.1562373019097928 x[1,2] - 0.1561080122640464 x[1,3]
   - 0.0285545417605556 x[1,4] - 0.165195227365077 x[1,5]
   - 0.0958959772450224 x[1,6] - 0.1024897491780872 x[1,7]
   + 0.1846994939233867 x[4,1] + 0.1562373019097928 x[4,2]
   + 0.1561080122640464 x[4,3] + 0.0285545417605556 x[4,4]
   + 0.165195227365077 x[4,5] + 0.0958959772450224 x[4,6]
   + 0.1024897491780872 x[4,7] >= 0
 findWorstP[4,2]: z - 0.110819696354032 cashProportion[2]
   + 0.110819696354032 cashProportion[4] - 0.1846994939233867 x[2,1]
   - 0.1562373019097928 x[2,2] - 0.1561080122640464 x[2,3]
   - 0.0285545417605556 x[2,4] - 0.165195227365077 x[2,5]
   - 0.0958959772450224 x[2,6] - 0.1024897491780872 x[2,7]
   + 0.1846994939233867 x[4,1] + 0.1562373019097928 x[4,2]
   + 0.1561080122640464 x[4,3] + 0.0285545417605556 x[4,4]
   + 0.165195227365077 x[4,5] + 0.0958959772450224 x[4,6]
   + 0.1024897491780872 x[4,7] >= 0
 findWorstP[4,3]: z - 0.110819696354032 cashProportion[3]
   + 0.110819696354032 cashProportion[4] - 0.1846994939233867 x[3,1]
   - 0.1562373019097928 x[3,2] - 0.1561080122640464 x[3,3]
   - 0.0285545417605556 x[3,4] - 0.165195227365077 x[3,5]
   - 0.0958959772450224 x[3,6] - 0.1024897491780872 x[3,7]
   + 0.1846994939233867 x[4,1] + 0.1562373019097928 x[4,2]
   + 0.1561080122640464 x[4,3] + 0.0285545417605556 x[4,4]
   + 0.165195227365077 x[4,5] + 0.0958959772450224 x[4,6]
   + 0.1024897491780872 x[4,7] >= 0
 findWorstP[4,5]: z + 0.110819696354032 cashProportion[4]
   - 0.110819696354032 cashProportion[5] + 0.1846994939233867 x[4,1]
   + 0.1562373019097928 x[4,2] + 0.1561080122640464 x[4,3]
   + 0.0285545417605556 x[4,4] + 0.165195227365077 x[4,5]
   + 0.0958959772450224 x[4,6] + 0.1024897491780872 x[4,7]
   - 0.1846994939233867 x[5,1] - 0.1562373019097928 x[5,2]
   - 0.1561080122640464 x[5,3] - 0.0285545417605556 x[5,4]
   - 0.165195227365077 x[5,5] - 0.0958959772450224 x[5,6]
   - 0.1024897491780872 x[5,7] >= 0
 findWorstP[5,1]: z - 0.1585372298261375 cashProportion[1]
   + 0.1585372298261375 cashProportion[5] - 0.1291549965650267 x[1,1]
   - 0.00258944142049358 x[1,2] - 0.0480367806373197 x[1,3]
   - 0.2471331184273107 x[1,4] - 0.1390635734291603 x[1,5]
   - 0.1264862865296201 x[1,6] - 0.1489985731649316 x[1,7]
   + 0.1291549965650267 x[5,1] + 0.00258944142049358 x[5,2]
   + 0.0480367806373197 x[5,3] + 0.2471331184273107 x[5,4]
   + 0.1390635734291603 x[5,5] + 0.1264862865296201 x[5,6]
   + 0.1489985731649316 x[5,7] >= 0
 findWorstP[5,2]: z - 0.1585372298261375 cashProportion[2]
   + 0.1585372298261375 cashProportion[5] - 0.1291549965650267 x[2,1]
   - 0.00258944142049358 x[2,2] - 0.0480367806373197 x[2,3]
   - 0.2471331184273107 x[2,4] - 0.1390635734291603 x[2,5]
   - 0.1264862865296201 x[2,6] - 0.1489985731649316 x[2,7]
   + 0.1291549965650267 x[5,1] + 0.00258944142049358 x[5,2]
   + 0.0480367806373197 x[5,3] + 0.2471331184273107 x[5,4]
   + 0.1390635734291603 x[5,5] + 0.1264862865296201 x[5,6]
   + 0.1489985731649316 x[5,7] >= 0
 findWorstP[5,3]: z - 0.1585372298261375 cashProportion[3]
   + 0.1585372298261375 cashProportion[5] - 0.1291549965650267 x[3,1]
   - 0.00258944142049358 x[3,2] - 0.0480367806373197 x[3,3]
   - 0.2471331184273107 x[3,4] - 0.1390635734291603 x[3,5]
   - 0.1264862865296201 x[3,6] - 0.1489985731649316 x[3,7]
   + 0.1291549965650267 x[5,1] + 0.00258944142049358 x[5,2]
   + 0.0480367806373197 x[5,3] + 0.2471331184273107 x[5,4]
   + 0.1390635734291603 x[5,5] + 0.1264862865296201 x[5,6]
   + 0.1489985731649316 x[5,7] >= 0
 findWorstP[5,4]: z - 0.1585372298261375 cashProportion[4]
   + 0.1585372298261375 cashProportion[5] - 0.1291549965650267 x[4,1]
   - 0.00258944142049358 x[4,2] - 0.0480367806373197 x[4,3]
   - 0.2471331184273107 x[4,4] - 0.1390635734291603 x[4,5]
   - 0.1264862865296201 x[4,6] - 0.1489985731649316 x[4,7]
   + 0.1291549965650267 x[5,1] + 0.00258944142049358 x[5,2]
   + 0.0480367806373197 x[5,3] + 0.2471331184273107 x[5,4]
   + 0.1390635734291603 x[5,5] + 0.1264862865296201 x[5,6]
   + 0.1489985731649316 x[5,7] >= 0
Bounds
 z <= 1
 -infinity <= cashProportion[1] <= 1
 -infinity <= cashProportion[2] <= 1
 -infinity <= cashProportion[3] <= 1
 -infinity <= cashProportion[4] <= 1
 -infinity <= cashProportion[5] <= 1
Binaries
 x[1,1] x[1,2] x[1,3] x[1,4] x[1,5] x[1,6] x[1,7] x[2,1] x[2,2] x[2,3]
 x[2,4] x[2,5] x[2,6] x[2,7] x[3,1] x[3,2] x[3,3] x[3,4] x[3,5] x[3,6]
 x[3,7] x[4,1] x[4,2] x[4,3] x[4,4] x[4,5] x[4,6] x[4,7] x[5,1] x[5,2]
 x[5,3] x[5,4] x[5,5] x[5,6] x[5,7]
End
