data/mps_files/pEFS/87_7.mps
NAME foo
ROWS
 N  OBJ
 E  allocateEach[1]
 E  allocateEach[2]
 E  allocateEach[3]
 E  allocateEach[4]
 E  allocateEach[5]
 E  allocateEach[6]
 E  allocateEach[7]
 E  allocateAllCash
 G  findWorstP[1,2]
 G  findWorstP[1,3]
 G  findWorstP[1,4]
 G  findWorstP[1,5]
 G  findWorstP[2,1]
 G  findWorstP[2,3]
 G  findWorstP[2,4]
 G  findWorstP[2,5]
 G  findWorstP[3,1]
 G  findWorstP[3,2]
 G  findWorstP[3,4]
 G  findWorstP[3,5]
 G  findWorstP[4,1]
 G  findWorstP[4,2]
 G  findWorstP[4,3]
 G  findWorstP[4,5]
 G  findWorstP[5,1]
 G  findWorstP[5,2]
 G  findWorstP[5,3]
 G  findWorstP[5,4]
COLUMNS
    z         OBJ       1
    z         findWorstP[1,2]  1
    z         findWorstP[1,3]  1
    z         findWorstP[1,4]  1
    z         findWorstP[1,5]  1
    z         findWorstP[2,1]  1
    z         findWorstP[2,3]  1
    z         findWorstP[2,4]  1
    z         findWorstP[2,5]  1
    z         findWorstP[3,1]  1
    z         findWorstP[3,2]  1
    z         findWorstP[3,4]  1
    z         findWorstP[3,5]  1
    z         findWorstP[4,1]  1
    z         findWorstP[4,2]  1
    z         findWorstP[4,3]  1
    z         findWorstP[4,5]  1
    z         findWorstP[5,1]  1
    z         findWorstP[5,2]  1
    z         findWorstP[5,3]  1
    z         findWorstP[5,4]  1
    cashProportion[1]  allocateAllCash  1
    cashProportion[1]  findWorstP[1,2]  1.6264129462470522e-01
    cashProportion[1]  findWorstP[1,3]  1.6264129462470522e-01
    cashProportion[1]  findWorstP[1,4]  1.6264129462470522e-01
    cashProportion[1]  findWorstP[1,5]  1.6264129462470522e-01
    cashProportion[1]  findWorstP[2,1]  -1.3027052846411047e-01
    cashProportion[1]  findWorstP[3,1]  -1.4753251862598049e-01
    cashProportion[1]  findWorstP[4,1]  -1.1081969635403202e-01
    cashProportion[1]  findWorstP[5,1]  -1.5853722982613755e-01
    cashProportion[2]  allocateAllCash  1
    cashProportion[2]  findWorstP[1,2]  -1.6264129462470522e-01
    cashProportion[2]  findWorstP[2,1]  1.3027052846411047e-01
    cashProportion[2]  findWorstP[2,3]  1.3027052846411047e-01
    cashProportion[2]  findWorstP[2,4]  1.3027052846411047e-01
    cashProportion[2]  findWorstP[2,5]  1.3027052846411047e-01
    cashProportion[2]  findWorstP[3,2]  -1.4753251862598049e-01
    cashProportion[2]  findWorstP[4,2]  -1.1081969635403202e-01
    cashProportion[2]  findWorstP[5,2]  -1.5853722982613755e-01
    cashProportion[3]  allocateAllCash  1
    cashProportion[3]  findWorstP[1,3]  -1.6264129462470522e-01
    cashProportion[3]  findWorstP[2,3]  -1.3027052846411047e-01
    cashProportion[3]  findWorstP[3,1]  1.4753251862598049e-01
    cashProportion[3]  findWorstP[3,2]  1.4753251862598049e-01
    cashProportion[3]  findWorstP[3,4]  1.4753251862598049e-01
    cashProportion[3]  findWorstP[3,5]  1.4753251862598049e-01
    cashProportion[3]  findWorstP[4,3]  -1.1081969635403202e-01
    cashProportion[3]  findWorstP[5,3]  -1.5853722982613755e-01
    cashProportion[4]  allocateAllCash  1
    cashProportion[4]  findWorstP[1,4]  -1.6264129462470522e-01
    cashProportion[4]  findWorstP[2,4]  -1.3027052846411047e-01
    cashProportion[4]  findWorstP[3,4]  -1.4753251862598049e-01
    cashProportion[4]  findWorstP[4,1]  1.1081969635403202e-01
    cashProportion[4]  findWorstP[4,2]  1.1081969635403202e-01
    cashProportion[4]  findWorstP[4,3]  1.1081969635403202e-01
    cashProportion[4]  findWorstP[4,5]  1.1081969635403202e-01
    cashProportion[4]  findWorstP[5,4]  -1.5853722982613755e-01
    cashProportion[5]  allocateAllCash  1
    cashProportion[5]  findWorstP[1,5]  -1.6264129462470522e-01
    cashProportion[5]  findWorstP[2,5]  -1.3027052846411047e-01
    cashProportion[5]  findWorstP[3,5]  -1.4753251862598049e-01
    cashProportion[5]  findWorstP[4,5]  -1.1081969635403202e-01
    cashProportion[5]  findWorstP[5,1]  1.5853722982613755e-01
    cashProportion[5]  findWorstP[5,2]  1.5853722982613755e-01
    cashProportion[5]  findWorstP[5,3]  1.5853722982613755e-01
    cashProportion[5]  findWorstP[5,4]  1.5853722982613755e-01
    MARKER    'MARKER'                 'INTORG'
    x[1,1]    allocateEach[1]  1
    x[1,1]    findWorstP[1,2]  1.9132037624352824e-01
    x[1,1]    findWorstP[1,3]  1.9132037624352824e-01
    x[1,1]    findWorstP[1,4]  1.9132037624352824e-01
    x[1,1]    findWorstP[1,5]  1.9132037624352824e-01
    x[1,1]    findWorstP[2,1]  -1.7488818446306831e-01
    x[1,1]    findWorstP[3,1]  -4.4726941896776409e-02
    x[1,1]    findWorstP[4,1]  -1.8469949392338667e-01
    x[1,1]    findWorstP[5,1]  -1.2915499656502671e-01
    x[1,2]    allocateEach[2]  1
    x[1,2]    findWorstP[1,2]  2.6551191347483127e-01
    x[1,2]    findWorstP[1,3]  2.6551191347483127e-01
    x[1,2]    findWorstP[1,4]  2.6551191347483127e-01
    x[1,2]    findWorstP[1,5]  2.6551191347483127e-01
    x[1,2]    findWorstP[2,1]  -1.9588345130053411e-01
    x[1,2]    findWorstP[3,1]  -1.4273771177063610e-01
    x[1,2]    findWorstP[4,1]  -1.5623730190979276e-01
    x[1,2]    findWorstP[5,1]  -2.5894414204935797e-03
    x[1,3]    allocateEach[3]  1
    x[1,3]    findWorstP[1,2]  0.00715621696348703
    x[1,3]    findWorstP[1,3]  0.00715621696348703
    x[1,3]    findWorstP[1,4]  0.00715621696348703
    x[1,3]    findWorstP[1,5]  0.00715621696348703
    x[1,3]    findWorstP[2,1]  -1.4763993225932521e-02
    x[1,3]    findWorstP[3,1]  -2.4160908800314734e-01
    x[1,3]    findWorstP[4,1]  -1.5610801226404641e-01
    x[1,3]    findWorstP[5,1]  -4.8036780637319670e-02
    x[1,4]    allocateEach[4]  1
    x[1,4]    findWorstP[1,2]  5.8144262828332113e-02
    x[1,4]    findWorstP[1,3]  5.8144262828332113e-02
    x[1,4]    findWorstP[1,4]  5.8144262828332113e-02
    x[1,4]    findWorstP[1,5]  5.8144262828332113e-02
    x[1,4]    findWorstP[2,1]  -1.8296495722784314e-01
    x[1,4]    findWorstP[3,1]  -3.2752219134967668e-02
    x[1,4]    findWorstP[4,1]  -2.8554541760555576e-02
    x[1,4]    findWorstP[5,1]  -2.4713311842731073e-01
    x[1,5]    allocateEach[5]  1
    x[1,5]    findWorstP[1,2]  9.2786858583394319e-02
    x[1,5]    findWorstP[1,3]  9.2786858583394319e-02
    x[1,5]    findWorstP[1,4]  9.2786858583394319e-02
    x[1,5]    findWorstP[1,5]  9.2786858583394319e-02
    x[1,5]    findWorstP[2,1]  -1.1702635807025924e-01
    x[1,5]    findWorstP[3,1]  -1.2419779192997121e-01
    x[1,5]    findWorstP[4,1]  -1.6519522736507702e-01
    x[1,5]    findWorstP[5,1]  -1.3906357342916029e-01
    x[1,6]    allocateEach[6]  1
    x[1,6]    findWorstP[1,2]  5.8984576183893085e-02
    x[1,6]    findWorstP[1,3]  5.8984576183893085e-02
    x[1,6]    findWorstP[1,4]  5.8984576183893085e-02
    x[1,6]    findWorstP[1,5]  5.8984576183893085e-02
    x[1,6]    findWorstP[2,1]  -1.5832211559338225e-01
    x[1,6]    findWorstP[3,1]  -2.4470727089429292e-01
    x[1,6]    findWorstP[4,1]  -9.5895977245022357e-02
    x[1,6]    findWorstP[5,1]  -1.2648628652962007e-01
    x[1,7]    allocateEach[7]  1
    x[1,7]    findWorstP[1,2]  1.6345450109782875e-01
    x[1,7]    findWorstP[1,3]  1.6345450109782875e-01
    x[1,7]    findWorstP[1,4]  1.6345450109782875e-01
    x[1,7]    findWorstP[1,5]  1.6345450109782875e-01
    x[1,7]    findWorstP[2,1]  -2.5880411654869945e-02
    x[1,7]    findWorstP[3,1]  -2.1736457744227791e-02
    x[1,7]    findWorstP[4,1]  -1.0248974917808724e-01
    x[1,7]    findWorstP[5,1]  -1.4899857316493156e-01
    x[2,1]    allocateEach[1]  1
    x[2,1]    findWorstP[1,2]  -1.9132037624352824e-01
    x[2,1]    findWorstP[2,1]  1.7488818446306831e-01
    x[2,1]    findWorstP[2,3]  1.7488818446306831e-01
    x[2,1]    findWorstP[2,4]  1.7488818446306831e-01
    x[2,1]    findWorstP[2,5]  1.7488818446306831e-01
    x[2,1]    findWorstP[3,2]  -4.4726941896776409e-02
    x[2,1]    findWorstP[4,2]  -1.8469949392338667e-01
    x[2,1]    findWorstP[5,2]  -1.2915499656502671e-01
    x[2,2]    allocateEach[2]  1
    x[2,2]    findWorstP[1,2]  -2.6551191347483127e-01
    x[2,2]    findWorstP[2,1]  1.9588345130053411e-01
    x[2,2]    findWorstP[2,3]  1.9588345130053411e-01
    x[2,2]    findWorstP[2,4]  1.9588345130053411e-01
    x[2,2]    findWorstP[2,5]  1.9588345130053411e-01
    x[2,2]    findWorstP[3,2]  -1.4273771177063610e-01
    x[2,2]    findWorstP[4,2]  -1.5623730190979276e-01
    x[2,2]    findWorstP[5,2]  -2.5894414204935797e-03
    x[2,3]    allocateEach[3]  1
    x[2,3]    findWorstP[1,2]  -0.00715621696348703
    x[2,3]    findWorstP[2,1]  1.4763993225932521e-02
    x[2,3]    findWorstP[2,3]  1.4763993225932521e-02
    x[2,3]    findWorstP[2,4]  1.4763993225932521e-02
    x[2,3]    findWorstP[2,5]  1.4763993225932521e-02
    x[2,3]    findWorstP[3,2]  -2.4160908800314734e-01
    x[2,3]    findWorstP[4,2]  -1.5610801226404641e-01
    x[2,3]    findWorstP[5,2]  -4.8036780637319670e-02
    x[2,4]    allocateEach[4]  1
    x[2,4]    findWorstP[1,2]  -5.8144262828332113e-02
    x[2,4]    findWorstP[2,1]  1.8296495722784314e-01
    x[2,4]    findWorstP[2,3]  1.8296495722784314e-01
    x[2,4]    findWorstP[2,4]  1.8296495722784314e-01
    x[2,4]    findWorstP[2,5]  1.8296495722784314e-01
    x[2,4]    findWorstP[3,2]  -3.2752219134967668e-02
    x[2,4]    findWorstP[4,2]  -2.8554541760555576e-02
    x[2,4]    findWorstP[5,2]  -2.4713311842731073e-01
    x[2,5]    allocateEach[5]  1
    x[2,5]    findWorstP[1,2]  -9.2786858583394319e-02
    x[2,5]    findWorstP[2,1]  1.1702635807025924e-01
    x[2,5]    findWorstP[2,3]  1.1702635807025924e-01
    x[2,5]    findWorstP[2,4]  1.1702635807025924e-01
    x[2,5]    findWorstP[2,5]  1.1702635807025924e-01
    x[2,5]    findWorstP[3,2]  -1.2419779192997121e-01
    x[2,5]    findWorstP[4,2]  -1.6519522736507702e-01
    x[2,5]    findWorstP[5,2]  -1.3906357342916029e-01
    x[2,6]    allocateEach[6]  1
    x[2,6]    findWorstP[1,2]  -5.8984576183893085e-02
    x[2,6]    findWorstP[2,1]  1.5832211559338225e-01
    x[2,6]    findWorstP[2,3]  1.5832211559338225e-01
    x[2,6]    findWorstP[2,4]  1.5832211559338225e-01
    x[2,6]    findWorstP[2,5]  1.5832211559338225e-01
    x[2,6]    findWorstP[3,2]  -2.4470727089429292e-01
    x[2,6]    findWorstP[4,2]  -9.5895977245022357e-02
    x[2,6]    findWorstP[5,2]  -1.2648628652962007e-01
    x[2,7]    allocateEach[7]  1
    x[2,7]    findWorstP[1,2]  -1.6345450109782875e-01
    x[2,7]    findWorstP[2,1]  2.5880411654869945e-02
    x[2,7]    findWorstP[2,3]  2.5880411654869945e-02
    x[2,7]    findWorstP[2,4]  2.5880411654869945e-02
    x[2,7]    findWorstP[2,5]  2.5880411654869945e-02
    x[2,7]    findWorstP[3,2]  -2.1736457744227791e-02
    x[2,7]    findWorstP[4,2]  -1.0248974917808724e-01
    x[2,7]    findWorstP[5,2]  -1.4899857316493156e-01
    x[3,1]    allocateEach[1]  1
    x[3,1]    findWorstP[1,3]  -1.9132037624352824e-01
    x[3,1]    findWorstP[2,3]  -1.7488818446306831e-01
    x[3,1]    findWorstP[3,1]  4.4726941896776409e-02
    x[3,1]    findWorstP[3,2]  4.4726941896776409e-02
    x[3,1]    findWorstP[3,4]  4.4726941896776409e-02
    x[3,1]    findWorstP[3,5]  4.4726941896776409e-02
    x[3,1]    findWorstP[4,3]  -1.8469949392338667e-01
    x[3,1]    findWorstP[5,3]  -1.2915499656502671e-01
    x[3,2]    allocateEach[2]  1
    x[3,2]    findWorstP[1,3]  -2.6551191347483127e-01
    x[3,2]    findWorstP[2,3]  -1.9588345130053411e-01
    x[3,2]    findWorstP[3,1]  1.4273771177063610e-01
    x[3,2]    findWorstP[3,2]  1.4273771177063610e-01
    x[3,2]    findWorstP[3,4]  1.4273771177063610e-01
    x[3,2]    findWorstP[3,5]  1.4273771177063610e-01
    x[3,2]    findWorstP[4,3]  -1.5623730190979276e-01
    x[3,2]    findWorstP[5,3]  -2.5894414204935797e-03
    x[3,3]    allocateEach[3]  1
    x[3,3]    findWorstP[1,3]  -0.00715621696348703
    x[3,3]    findWorstP[2,3]  -1.4763993225932521e-02
    x[3,3]    findWorstP[3,1]  2.4160908800314734e-01
    x[3,3]    findWorstP[3,2]  2.4160908800314734e-01
    x[3,3]    findWorstP[3,4]  2.4160908800314734e-01
    x[3,3]    findWorstP[3,5]  2.4160908800314734e-01
    x[3,3]    findWorstP[4,3]  -1.5610801226404641e-01
    x[3,3]    findWorstP[5,3]  -4.8036780637319670e-02
    x[3,4]    allocateEach[4]  1
    x[3,4]    findWorstP[1,3]  -5.8144262828332113e-02
    x[3,4]    findWorstP[2,3]  -1.8296495722784314e-01
    x[3,4]    findWorstP[3,1]  3.2752219134967668e-02
    x[3,4]    findWorstP[3,2]  3.2752219134967668e-02
    x[3,4]    findWorstP[3,4]  3.2752219134967668e-02
    x[3,4]    findWorstP[3,5]  3.2752219134967668e-02
    x[3,4]    findWorstP[4,3]  -2.8554541760555576e-02
    x[3,4]    findWorstP[5,3]  -2.4713311842731073e-01
    x[3,5]    allocateEach[5]  1
    x[3,5]    findWorstP[1,3]  -9.2786858583394319e-02
    x[3,5]    findWorstP[2,3]  -1.1702635807025924e-01
    x[3,5]    findWorstP[3,1]  1.2419779192997121e-01
    x[3,5]    findWorstP[3,2]  1.2419779192997121e-01
    x[3,5]    findWorstP[3,4]  1.2419779192997121e-01
    x[3,5]    findWorstP[3,5]  1.2419779192997121e-01
    x[3,5]    findWorstP[4,3]  -1.6519522736507702e-01
    x[3,5]    findWorstP[5,3]  -1.3906357342916029e-01
    x[3,6]    allocateEach[6]  1
    x[3,6]    findWorstP[1,3]  -5.8984576183893085e-02
    x[3,6]    findWorstP[2,3]  -1.5832211559338225e-01
    x[3,6]    findWorstP[3,1]  2.4470727089429292e-01
    x[3,6]    findWorstP[3,2]  2.4470727089429292e-01
    x[3,6]    findWorstP[3,4]  2.4470727089429292e-01
    x[3,6]    findWorstP[3,5]  2.4470727089429292e-01
    x[3,6]    findWorstP[4,3]  -9.5895977245022357e-02
    x[3,6]    findWorstP[5,3]  -1.2648628652962007e-01
    x[3,7]    allocateEach[7]  1
    x[3,7]    findWorstP[1,3]  -1.6345450109782875e-01
    x[3,7]    findWorstP[2,3]  -2.5880411654869945e-02
    x[3,7]    findWorstP[3,1]  2.1736457744227791e-02
    x[3,7]    findWorstP[3,2]  2.1736457744227791e-02
    x[3,7]    findWorstP[3,4]  2.1736457744227791e-02
    x[3,7]    findWorstP[3,5]  2.1736457744227791e-02
    x[3,7]    findWorstP[4,3]  -1.0248974917808724e-01
    x[3,7]    findWorstP[5,3]  -1.4899857316493156e-01
    x[4,1]    allocateEach[1]  1
    x[4,1]    findWorstP[1,4]  -1.9132037624352824e-01
    x[4,1]    findWorstP[2,4]  -1.7488818446306831e-01
    x[4,1]    findWorstP[3,4]  -4.4726941896776409e-02
    x[4,1]    findWorstP[4,1]  1.8469949392338667e-01
    x[4,1]    findWorstP[4,2]  1.8469949392338667e-01
    x[4,1]    findWorstP[4,3]  1.8469949392338667e-01
    x[4,1]    findWorstP[4,5]  1.8469949392338667e-01
    x[4,1]    findWorstP[5,4]  -1.2915499656502671e-01
    x[4,2]    allocateEach[2]  1
    x[4,2]    findWorstP[1,4]  -2.6551191347483127e-01
    x[4,2]    findWorstP[2,4]  -1.9588345130053411e-01
    x[4,2]    findWorstP[3,4]  -1.4273771177063610e-01
    x[4,2]    findWorstP[4,1]  1.5623730190979276e-01
    x[4,2]    findWorstP[4,2]  1.5623730190979276e-01
    x[4,2]    findWorstP[4,3]  1.5623730190979276e-01
    x[4,2]    findWorstP[4,5]  1.5623730190979276e-01
    x[4,2]    findWorstP[5,4]  -2.5894414204935797e-03
    x[4,3]    allocateEach[3]  1
    x[4,3]    findWorstP[1,4]  -0.00715621696348703
    x[4,3]    findWorstP[2,4]  -1.4763993225932521e-02
    x[4,3]    findWorstP[3,4]  -2.4160908800314734e-01
    x[4,3]    findWorstP[4,1]  1.5610801226404641e-01
    x[4,3]    findWorstP[4,2]  1.5610801226404641e-01
    x[4,3]    findWorstP[4,3]  1.5610801226404641e-01
    x[4,3]    findWorstP[4,5]  1.5610801226404641e-01
    x[4,3]    findWorstP[5,4]  -4.8036780637319670e-02
    x[4,4]    allocateEach[4]  1
    x[4,4]    findWorstP[1,4]  -5.8144262828332113e-02
    x[4,4]    findWorstP[2,4]  -1.8296495722784314e-01
    x[4,4]    findWorstP[3,4]  -3.2752219134967668e-02
    x[4,4]    findWorstP[4,1]  2.8554541760555576e-02
    x[4,4]    findWorstP[4,2]  2.8554541760555576e-02
    x[4,4]    findWorstP[4,3]  2.8554541760555576e-02
    x[4,4]    findWorstP[4,5]  2.8554541760555576e-02
    x[4,4]    findWorstP[5,4]  -2.4713311842731073e-01
    x[4,5]    allocateEach[5]  1
    x[4,5]    findWorstP[1,4]  -9.2786858583394319e-02
    x[4,5]    findWorstP[2,4]  -1.1702635807025924e-01
    x[4,5]    findWorstP[3,4]  -1.2419779192997121e-01
    x[4,5]    findWorstP[4,1]  1.6519522736507702e-01
    x[4,5]    findWorstP[4,2]  1.6519522736507702e-01
    x[4,5]    findWorstP[4,3]  1.6519522736507702e-01
    x[4,5]    findWorstP[4,5]  1.6519522736507702e-01
    x[4,5]    findWorstP[5,4]  -1.3906357342916029e-01
    x[4,6]    allocateEach[6]  1
    x[4,6]    findWorstP[1,4]  -5.8984576183893085e-02
    x[4,6]    findWorstP[2,4]  -1.5832211559338225e-01
    x[4,6]    findWorstP[3,4]  -2.4470727089429292e-01
    x[4,6]    findWorstP[4,1]  9.5895977245022357e-02
    x[4,6]    findWorstP[4,2]  9.5895977245022357e-02
    x[4,6]    findWorstP[4,3]  9.5895977245022357e-02
    x[4,6]    findWorstP[4,5]  9.5895977245022357e-02
    x[4,6]    findWorstP[5,4]  -1.2648628652962007e-01
    x[4,7]    allocateEach[7]  1
    x[4,7]    findWorstP[1,4]  -1.6345450109782875e-01
    x[4,7]    findWorstP[2,4]  -2.5880411654869945e-02
    x[4,7]    findWorstP[3,4]  -2.1736457744227791e-02
    x[4,7]    findWorstP[4,1]  1.0248974917808724e-01
    x[4,7]    findWorstP[4,2]  1.0248974917808724e-01
    x[4,7]    findWorstP[4,3]  1.0248974917808724e-01
    x[4,7]    findWorstP[4,5]  1.0248974917808724e-01
    x[4,7]    findWorstP[5,4]  -1.4899857316493156e-01
    x[5,1]    allocateEach[1]  1
    x[5,1]    findWorstP[1,5]  -1.9132037624352824e-01
    x[5,1]    findWorstP[2,5]  -1.7488818446306831e-01
    x[5,1]    findWorstP[3,5]  -4.4726941896776409e-02
    x[5,1]    findWorstP[4,5]  -1.8469949392338667e-01
    x[5,1]    findWorstP[5,1]  1.2915499656502671e-01
    x[5,1]    findWorstP[5,2]  1.2915499656502671e-01
    x[5,1]    findWorstP[5,3]  1.2915499656502671e-01
    x[5,1]    findWorstP[5,4]  1.2915499656502671e-01
    x[5,2]    allocateEach[2]  1
    x[5,2]    findWorstP[1,5]  -2.6551191347483127e-01
    x[5,2]    findWorstP[2,5]  -1.9588345130053411e-01
    x[5,2]    findWorstP[3,5]  -1.4273771177063610e-01
    x[5,2]    findWorstP[4,5]  -1.5623730190979276e-01
    x[5,2]    findWorstP[5,1]  2.5894414204935797e-03
    x[5,2]    findWorstP[5,2]  2.5894414204935797e-03
    x[5,2]    findWorstP[5,3]  2.5894414204935797e-03
    x[5,2]    findWorstP[5,4]  2.5894414204935797e-03
    x[5,3]    allocateEach[3]  1
    x[5,3]    findWorstP[1,5]  -0.00715621696348703
    x[5,3]    findWorstP[2,5]  -1.4763993225932521e-02
    x[5,3]    findWorstP[3,5]  -2.4160908800314734e-01
    x[5,3]    findWorstP[4,5]  -1.5610801226404641e-01
    x[5,3]    findWorstP[5,1]  4.8036780637319670e-02
    x[5,3]    findWorstP[5,2]  4.8036780637319670e-02
    x[5,3]    findWorstP[5,3]  4.8036780637319670e-02
    x[5,3]    findWorstP[5,4]  4.8036780637319670e-02
    x[5,4]    allocateEach[4]  1
    x[5,4]    findWorstP[1,5]  -5.8144262828332113e-02
    x[5,4]    findWorstP[2,5]  -1.8296495722784314e-01
    x[5,4]    findWorstP[3,5]  -3.2752219134967668e-02
    x[5,4]    findWorstP[4,5]  -2.8554541760555576e-02
    x[5,4]    findWorstP[5,1]  2.4713311842731073e-01
    x[5,4]    findWorstP[5,2]  2.4713311842731073e-01
    x[5,4]    findWorstP[5,3]  2.4713311842731073e-01
    x[5,4]    findWorstP[5,4]  2.4713311842731073e-01
    x[5,5]    allocateEach[5]  1
    x[5,5]    findWorstP[1,5]  -9.2786858583394319e-02
    x[5,5]    findWorstP[2,5]  -1.1702635807025924e-01
    x[5,5]    findWorstP[3,5]  -1.2419779192997121e-01
    x[5,5]    findWorstP[4,5]  -1.6519522736507702e-01
    x[5,5]    findWorstP[5,1]  1.3906357342916029e-01
    x[5,5]    findWorstP[5,2]  1.3906357342916029e-01
    x[5,5]    findWorstP[5,3]  1.3906357342916029e-01
    x[5,5]    findWorstP[5,4]  1.3906357342916029e-01
    x[5,6]    allocateEach[6]  1
    x[5,6]    findWorstP[1,5]  -5.8984576183893085e-02
    x[5,6]    findWorstP[2,5]  -1.5832211559338225e-01
    x[5,6]    findWorstP[3,5]  -2.4470727089429292e-01
    x[5,6]    findWorstP[4,5]  -9.5895977245022357e-02
    x[5,6]    findWorstP[5,1]  1.2648628652962007e-01
    x[5,6]    findWorstP[5,2]  1.2648628652962007e-01
    x[5,6]    findWorstP[5,3]  1.2648628652962007e-01
    x[5,6]    findWorstP[5,4]  1.2648628652962007e-01
    x[5,7]    allocateEach[7]  1
    x[5,7]    findWorstP[1,5]  -1.6345450109782875e-01
    x[5,7]    findWorstP[2,5]  -2.5880411654869945e-02
    x[5,7]    findWorstP[3,5]  -2.1736457744227791e-02
    x[5,7]    findWorstP[4,5]  -1.0248974917808724e-01
    x[5,7]    findWorstP[5,1]  1.4899857316493156e-01
    x[5,7]    findWorstP[5,2]  1.4899857316493156e-01
    x[5,7]    findWorstP[5,3]  1.4899857316493156e-01
    x[5,7]    findWorstP[5,4]  1.4899857316493156e-01
    MARKER    'MARKER'                 'INTEND'
RHS
    RHS1      allocateEach[1]  1
    RHS1      allocateEach[2]  1
    RHS1      allocateEach[3]  1
    RHS1      allocateEach[4]  1
    RHS1      allocateEach[5]  1
    RHS1      allocateEach[6]  1
    RHS1      allocateEach[7]  1
    RHS1      allocateAllCash  1
BOUNDS
 UP BND1      z         1
 MI BND1      cashProportion[1]
 UP BND1      cashProportion[1]  1
 MI BND1      cashProportion[2]
 UP BND1      cashProportion[2]  1
 MI BND1      cashProportion[3]
 UP BND1      cashProportion[3]  1
 MI BND1      cashProportion[4]
 UP BND1      cashProportion[4]  1
 MI BND1      cashProportion[5]
 UP BND1      cashProportion[5]  1
 BV BND1      x[1,1]  
 BV BND1      x[1,2]  
 BV BND1      x[1,3]  
 BV BND1      x[1,4]  
 BV BND1      x[1,5]  
 BV BND1      x[1,6]  
 BV BND1      x[1,7]  
 BV BND1      x[2,1]  
 BV BND1      x[2,2]  
 BV BND1      x[2,3]  
 BV BND1      x[2,4]  
 BV BND1      x[2,5]  
 BV BND1      x[2,6]  
 BV BND1      x[2,7]  
 BV BND1      x[3,1]  
 BV BND1      x[3,2]  
 BV BND1      x[3,3]  
 BV BND1      x[3,4]  
 BV BND1      x[3,5]  
 BV BND1      x[3,6]  
 BV BND1      x[3,7]  
 BV BND1      x[4,1]  
 BV BND1      x[4,2]  
 BV BND1      x[4,3]  
 BV BND1      x[4,4]  
 BV BND1      x[4,5]  
 BV BND1      x[4,6]  
 BV BND1      x[4,7]  
 BV BND1      x[5,1]  
 BV BND1      x[5,2]  
 BV BND1      x[5,3]  
 BV BND1      x[5,4]  
 BV BND1      x[5,5]  
 BV BND1      x[5,6]  
 BV BND1      x[5,7]  
ENDATA
